660.47
0 52 25 62 14 28 37 7 55 12 23 22 58 4 36 29 64 10 9 59 61 67 20 19 68 31 40 2 54 69 42 8 34 17 60 66 48 72 16 43 35 41 51 11 57 15 32 1 38 18 74 5 3 63 21 44 39 46 6 50 27 65 73 45 30 71 26 53 33 47 49 24 70 56 13
